[ti. 04. april 18:12:45 +0200 2023]  ./input/alternate_g_np/50-6-3.gcc
Set parameter Username
Academic license - for non-commercial use only - expires 2024-03-28
Set parameter TimeLimit to value 1800
Set parameter PreCrush to value 1
Set parameter LazyConstraints to value 1
Gurobi Optimizer version 10.0.1 build v10.0.1rc0 (linux64)

CPU model: AMD Ryzen 9 5950X 16-Core Processor, instruction set [SSE2|AVX|AVX2]
Thread count: 16 physical cores, 32 logical processors, using up to 32 threads

Optimize a model with 54 rows, 250 columns and 650 nonzeros
Model fingerprint: 0x8c4dc412
Variable types: 0 continuous, 250 integer (250 binary)
Coefficient statistics:
  Matrix range     [1e+00, 1e+00]
  Objective range  [1e+00, 1e+02]
  Bounds range     [1e+00, 1e+00]
  RHS range        [1e+00, 1e+00]
Presolve time: 0.00s
Presolved: 54 rows, 250 columns, 650 nonzeros
Variable types: 0 continuous, 250 integer (250 binary)

Root relaxation: objective 2.421000e+03, 4 iterations, 0.00 seconds (0.00 work units)

    Nodes    |    Current Node    |     Objective Bounds      |     Work
 Expl Unexpl |  Obj  Depth IntInf | Incumbent    BestBd   Gap | It/Node Time

     0     0 2421.00000    0    4          - 2421.00000      -     -    0s
     0     0 2421.00000    0    4          - 2421.00000      -     -    0s
     0     0 2421.00000    0    -          - 2421.00000      -     -    0s
     0     0 2421.00000    0    7          - 2421.00000      -     -    0s
     0     0 2421.00000    0    -          - 2421.00000      -     -    0s
     0     0 2421.00000    0    9          - 2421.00000      -     -    0s
     0     0 2421.00000    0    -          - 2421.00000      -     -    0s
     0     0 2421.00000    0    2          - 2421.00000      -     -    0s
     0     2 2421.00000    0    8          - 2421.00000      -     -    0s
 31905 17870 2421.00000   28   16          - 2421.00000      -  18.9    5s
 55590 34466 2382.00000   35   43          - 2421.00000      -  22.6   10s
*63950 30866              43    2356.0000000 2421.00000  2.76%  23.4   12s
H65971 27314                    2371.0000000 2421.00000  2.11%  23.6   12s
H66000  4024                    2420.0000000 2421.00000  0.04%  23.6   12s
H67069  3232                    2421.0000000 2421.00000  0.00%  24.1   13s

Cutting planes:
  User: 1
  Lazy constraints: 8

Explored 67069 nodes (1617902 simplex iterations) in 13.51 seconds (9.82 work units)
Thread count was 32 (of 32 available processors)

Solution count 4: 2421 2420 2371 2356 

Optimal solution found (tolerance 1.00e-04)
Best objective 2.421000000000e+03, best bound 2.421000000000e+03, gap 0.0000%

User-callback calls 138258, time in user-callback 2.32 sec
Minimal separator inequalities added: 68001
Indegree inequalities added: 0
Passed solution check
[ti. 04. april 18:12:58 +0200 2023]  done

